84
3 8 3 50 
3 91 30 21 
3 34 7 80 
2 31 110 
1 88 
1 99 
1 106 
3 1 66 94 
2 113 47 
3 89 108 103 
1 15 
1 85 
1 114 
1 13 
3 33 56 42 
1 38 
1 46 
1 120 
2 37 17 
3 79 4 39 
2 119 43 
1 95 
2 86 57 
3 18 62 73 
1 92 
1 96 
1 71 
2 24 74 
1 64 
1 55 
1 52 
1 81 
1 35 
1 28 
1 63 
1 117 
2 16 65 
1 93 
3 59 29 20 
1 107 
1 19 
2 36 90 
1 10 
1 58 
2 109 61 
1 68 
1 97 
1 75 
1 116 
2 40 102 
1 77 
2 100 49 
1 118 
2 53 54 
2 105 83 
1 26 
2 72 23 
1 82 
1 48 
2 51 27 
1 70 
1 104 
1 25 
2 2 5 
1 112 
1 60 
1 76 
2 12 98 
2 14 78 
1 84 
1 22 
1 111 
1 41 
1 45 
1 101 
1 9 
1 69 
1 6 
1 87 
1 67 
1 32 
1 115 
1 11 
1 44 
